NAME: toy20_uniform_seed202510285
TYPE: TSP
DIMENSION: 20
EDGE_WEIGHT_TYPE: EUC_2D
NODE_COORD_SECTION
1 591 829
2 547 497
3 480 909
4 516 308
5 896 625
6 941 525
7 626 812
8 678 218
9 356 872
10 868 607
11 355 456
12 25 600
13 21 921
14 729 279
15 19 395
16 287 885
17 75 773
18 135 971
19 297 635
20 920 289
EOF
